unknown
(model
; cardinality of BoundSet is 7
(declare-sort BoundSet 0)
; rep: @uc_BoundSet_0
; rep: @uc_BoundSet_1
; rep: @uc_BoundSet_2
; rep: @uc_BoundSet_3
; rep: @uc_BoundSet_4
; rep: @uc_BoundSet_5
; rep: @uc_BoundSet_6
; cardinality of UnboundSet is 1
(declare-sort UnboundSet 0)
(declare-fun groundTerm_8 () UnboundSet)
(define-fun OverHypingWarming ((BOUND_VARIABLE_443 BoundSet)) Bool true)
(define-fun AccordingToScientists ((BOUND_VARIABLE_458 BoundSet) (BOUND_VARIABLE_459 BoundSet) (BOUND_VARIABLE_460 BoundSet) (BOUND_VARIABLE_461 BoundSet)) Bool true)
(define-fun ResearchOfScientist ((BOUND_VARIABLE_466 BoundSet) (BOUND_VARIABLE_467 BoundSet)) Bool true)
(define-fun ShowsMoreWarming ((BOUND_VARIABLE_474 BoundSet) (BOUND_VARIABLE_475 BoundSet) (BOUND_VARIABLE_476 BoundSet)) Bool true)
(define-fun InaccuratelyPredictsWarming ((BOUND_VARIABLE_443 BoundSet)) Bool false)
)
sat
(model
; cardinality of BoundSet is 1
(declare-sort BoundSet 0)
; rep: @uc_BoundSet_0
; cardinality of UnboundSet is 1
(declare-sort UnboundSet 0)
(declare-fun groundTerm_10 () UnboundSet)
(define-fun OverHypingWarming ((BOUND_VARIABLE_503 BoundSet)) Bool true)
(define-fun AccordingToScientists ((BOUND_VARIABLE_518 BoundSet) (BOUND_VARIABLE_519 BoundSet) (BOUND_VARIABLE_520 BoundSet) (BOUND_VARIABLE_521 BoundSet)) Bool true)
(define-fun ResearchOfScientist ((BOUND_VARIABLE_526 BoundSet) (BOUND_VARIABLE_527 BoundSet)) Bool true)
(define-fun ShowsMoreWarming ((BOUND_VARIABLE_534 BoundSet) (BOUND_VARIABLE_535 BoundSet) (BOUND_VARIABLE_536 BoundSet)) Bool true)
(define-fun InaccuratelyPredictsWarming ((BOUND_VARIABLE_503 BoundSet)) Bool false)
)
